c Example 32-variable 3-SAT formula
c Generated for PhaseOS CDI-SAT testing
p cnf 32 96
1 2 -3 0
-1 4 5 0
2 -3 6 0
-4 5 -7 0
3 8 -9 0
-5 6 10 0
7 -8 11 0
-6 9 -12 0
10 13 -14 0
-11 12 15 0
8 -13 16 0
-14 15 -17 0
18 19 -20 0
-16 17 21 0
9 -18 22 0
-19 20 -23 0
24 25 -26 0
-21 22 27 0
11 -24 28 0
-25 26 -29 0
30 31 -32 0
-27 28 1 0
12 -30 2 0
-31 32 -3 0
4 5 -6 0
-1 7 8 0
9 -10 11 0
-2 12 13 0
14 15 -16 0
-3 17 18 0
19 -20 21 0
-4 22 23 0
24 25 -26 0
-5 27 28 0
29 -30 31 0
-6 32 1 0
2 3 -4 0
-7 8 9 0
10 -11 12 0
-13 14 15 0
16 17 -18 0
-19 20 21 0
22 -23 24 0
-25 26 27 0
28 29 -30 0
-31 32 1 0
2 -3 4 0
-5 6 7 0
8 -9 10 0
-11 12 13 0
14 15 -16 0
-17 18 19 0
20 -21 22 0
-23 24 25 0
26 27 -28 0
-29 30 31 0
32 -1 2 0
-3 4 5 0
6 -7 8 0
-9 10 11 0
12 13 -14 0
-15 16 17 0
18 -19 20 0
-21 22 23 0
24 25 -26 0
-27 28 29 0
30 -31 32 0
-1 2 3 0
4 -5 6 0
-7 8 9 0
10 11 -12 0
-13 14 15 0
16 -17 18 0
-19 20 21 0
22 23 -24 0
-25 26 27 0
28 -29 30 0
-31 32 1 0
2 3 -4 0
-5 6 7 0
8 -9 10 0
-11 12 13 0
14 15 -16 0
-17 18 19 0
20 -21 22 0
-23 24 25 0
26 27 -28 0
-29 30 31 0
32 -1 2 0
-3 4 5 0
6 -7 8 0
-9 10 11 0
12 13 -14 0
-15 16 17 0
18 -19 20 0
-21 22 23 0
24 25 -26 0
-27 28 29 0
30 -31 32 0

